12° run output:
{
    "Function": "kroB500.tsp",
    "Problem dimension": [
        31,
        308,
        141,
        449,
        224,
        313,
        389,
        168,
        24,
        56,
        470,
        359,
        497,
        106,
        365,
        314,
        66,
        442,
        152,
        18,
        125,
        387,
        431,
        37,
        495,
        347,
        259,
        396,
        198,
        274,
        451,
        186,
        366,
        228,
        76,
        480,
        488,
        418,
        459,
        475,
        398,
        436,
        414,
        362,
        11,
        354,
        72,
        290,
        494,
        437,
        294,
        447,
        364,
        248,
        432,
        10,
        182,
        172,
        407,
        129,
        395,
        498,
        300,
        42,
        103,
        273,
        352,
        448,
        193,
        110,
        134,
        261,
        142,
        236,
        456,
        140,
        340,
        90,
        392,
        439,
        367,
        483,
        428,
        83,
        73,
        88,
        240,
        183,
        465,
        138,
        275,
        293,
        251,
        267,
        203,
        252,
        207,
        170,
        256,
        353,
        64,
        74,
        196,
        33,
        48,
        466,
        146,
        179,
        160,
        270,
        199,
        264,
        86,
        6,
        341,
        371,
        386,
        380,
        289,
        54,
        35,
        150,
        191,
        1,
        461,
        283,
        15,
        109,
        205,
        36,
        375,
        151,
        120,
        477,
        425,
        69,
        239,
        493,
        254,
        87,
        20,
        107,
        368,
        133,
        23,
        226,
        492,
        209,
        258,
        214,
        92,
        97,
        427,
        38,
        84,
        411,
        159,
        262,
        14,
        105,
        345,
        374,
        409,
        81,
        296,
        272,
        234,
        221,
        122,
        496,
        376,
        487,
        343,
        8,
        58,
        478,
        117,
        243,
        70,
        213,
        297,
        499,
        329,
        75,
        491,
        218,
        377,
        280,
        132,
        195,
        44,
        63,
        485,
        232,
        219,
        246,
        454,
        473,
        309,
        299,
        80,
        67,
        231,
        424,
        126,
        116,
        9,
        305,
        165,
        357,
        57,
        184,
        390,
        339,
        47,
        180,
        346,
        144,
        332,
        121,
        61,
        469,
        457,
        287,
        444,
        3,
        143,
        5,
        249,
        220,
        426,
        399,
        295,
        479,
        16,
        185,
        263,
        104,
        315,
        445,
        284,
        361,
        41,
        139,
        154,
        202,
        484,
        476,
        82,
        123,
        45,
        233,
        39,
        7,
        323,
        127,
        171,
        438,
        348,
        310,
        167,
        119,
        404,
        0,
        79,
        131,
        316,
        99,
        149,
        94,
        422,
        157,
        208,
        155,
        68,
        468,
        175,
        298,
        19,
        153,
        406,
        13,
        49,
        136,
        292,
        271,
        229,
        100,
        242,
        21,
        95,
        227,
        211,
        462,
        212,
        423,
        490,
        53,
        176,
        108,
        317,
        349,
        46,
        169,
        78,
        250,
        372,
        40,
        101,
        370,
        489,
        401,
        410,
        415,
        322,
        464,
        335,
        276,
        279,
        360,
        137,
        281,
        472,
        336,
        60,
        379,
        337,
        378,
        164,
        301,
        30,
        285,
        124,
        344,
        391,
        450,
        158,
        174,
        166,
        98,
        25,
        253,
        350,
        393,
        147,
        115,
        22,
        302,
        443,
        201,
        403,
        455,
        433,
        306,
        102,
        247,
        93,
        89,
        188,
        429,
        467,
        311,
        482,
        430,
        4,
        96,
        358,
        303,
        320,
        173,
        217,
        474,
        161,
        463,
        394,
        304,
        222,
        118,
        190,
        187,
        43,
        257,
        260,
        266,
        50,
        17,
        235,
        206,
        237,
        216,
        312,
        400,
        145,
        416,
        419,
        327,
        71,
        77,
        471,
        351,
        388,
        156,
        26,
        111,
        130,
        288,
        59,
        382,
        148,
        189,
        408,
        435,
        405,
        369,
        113,
        225,
        385,
        291,
        112,
        265,
        230,
        330,
        245,
        420,
        397,
        421,
        326,
        412,
        27,
        278,
        481,
        55,
        328,
        381,
        29,
        28,
        135,
        402,
        486,
        318,
        384,
        62,
        194,
        32,
        441,
        200,
        128,
        52,
        204,
        434,
        241,
        458,
        244,
        255,
        277,
        286,
        460,
        12,
        269,
        342,
        363,
        440,
        192,
        417,
        282,
        356,
        65,
        181,
        355,
        177,
        223,
        319,
        197,
        210,
        452,
        268,
        162,
        34,
        446,
        163,
        51,
        383,
        238,
        91,
        307,
        373,
        321,
        334,
        325,
        324,
        2,
        338,
        331,
        333,
        215,
        413,
        178,
        453,
        85,
        114
    ],
    "Global Optimum": 0,
    "Algorithm": "Genetic algorithm",
    "Parameters": {
        "population": 30,
        "offspring": 30,
        "mutation probability": 0.002,
        "crossover probability": 0.9
    },
    "Fitness": 595359,
    "Solution": [
        31,
        308,
        141,
        449,
        224,
        313,
        389,
        168,
        24,
        56,
        470,
        359,
        497,
        106,
        365,
        314,
        66,
        442,
        152,
        18,
        125,
        387,
        431,
        37,
        495,
        347,
        259,
        396,
        198,
        274,
        451,
        186,
        366,
        228,
        76,
        480,
        488,
        418,
        459,
        475,
        398,
        436,
        414,
        362,
        11,
        354,
        72,
        290,
        494,
        437,
        294,
        447,
        364,
        248,
        432,
        10,
        182,
        172,
        407,
        129,
        395,
        498,
        300,
        42,
        103,
        273,
        352,
        448,
        193,
        110,
        134,
        261,
        142,
        236,
        456,
        140,
        340,
        90,
        392,
        439,
        367,
        483,
        428,
        83,
        73,
        88,
        240,
        183,
        465,
        138,
        275,
        293,
        251,
        267,
        203,
        252,
        207,
        170,
        256,
        353,
        64,
        74,
        196,
        33,
        48,
        466,
        146,
        179,
        160,
        270,
        199,
        264,
        86,
        6,
        341,
        371,
        386,
        380,
        289,
        54,
        35,
        150,
        191,
        1,
        461,
        283,
        15,
        109,
        205,
        36,
        375,
        151,
        120,
        477,
        425,
        69,
        239,
        493,
        254,
        87,
        20,
        107,
        368,
        133,
        23,
        226,
        492,
        209,
        258,
        214,
        92,
        97,
        427,
        38,
        84,
        411,
        159,
        262,
        14,
        105,
        345,
        374,
        409,
        81,
        296,
        272,
        234,
        221,
        122,
        496,
        376,
        487,
        343,
        8,
        58,
        478,
        117,
        243,
        70,
        213,
        297,
        499,
        329,
        75,
        491,
        218,
        377,
        280,
        132,
        195,
        44,
        63,
        485,
        232,
        219,
        246,
        454,
        473,
        309,
        299,
        80,
        67,
        231,
        424,
        126,
        116,
        9,
        305,
        165,
        357,
        57,
        184,
        390,
        339,
        47,
        180,
        346,
        144,
        332,
        121,
        61,
        469,
        457,
        287,
        444,
        3,
        143,
        5,
        249,
        220,
        426,
        399,
        295,
        479,
        16,
        185,
        263,
        104,
        315,
        445,
        284,
        361,
        41,
        139,
        154,
        202,
        484,
        476,
        82,
        123,
        45,
        233,
        39,
        7,
        323,
        127,
        171,
        438,
        348,
        310,
        167,
        119,
        404,
        0,
        79,
        131,
        316,
        99,
        149,
        94,
        422,
        157,
        208,
        155,
        68,
        468,
        175,
        298,
        19,
        153,
        406,
        13,
        49,
        136,
        292,
        271,
        229,
        100,
        242,
        21,
        95,
        227,
        211,
        462,
        212,
        423,
        490,
        53,
        176,
        108,
        317,
        349,
        46,
        169,
        78,
        250,
        372,
        40,
        101,
        370,
        489,
        401,
        410,
        415,
        322,
        464,
        335,
        276,
        279,
        360,
        137,
        281,
        472,
        336,
        60,
        379,
        337,
        378,
        164,
        301,
        30,
        285,
        124,
        344,
        391,
        450,
        158,
        174,
        166,
        98,
        25,
        253,
        350,
        393,
        147,
        115,
        22,
        302,
        443,
        201,
        403,
        455,
        433,
        306,
        102,
        247,
        93,
        89,
        188,
        429,
        467,
        311,
        482,
        430,
        4,
        96,
        358,
        303,
        320,
        173,
        217,
        474,
        161,
        463,
        394,
        304,
        222,
        118,
        190,
        187,
        43,
        257,
        260,
        266,
        50,
        17,
        235,
        206,
        237,
        216,
        312,
        400,
        145,
        416,
        419,
        327,
        71,
        77,
        471,
        351,
        388,
        156,
        26,
        111,
        130,
        288,
        59,
        382,
        148,
        189,
        408,
        435,
        405,
        369,
        113,
        225,
        385,
        291,
        112,
        265,
        230,
        330,
        245,
        420,
        397,
        421,
        326,
        412,
        27,
        278,
        481,
        55,
        328,
        381,
        29,
        28,
        135,
        402,
        486,
        318,
        384,
        62,
        194,
        32,
        441,
        200,
        128,
        52,
        204,
        434,
        241,
        458,
        244,
        255,
        277,
        286,
        460,
        12,
        269,
        342,
        363,
        440,
        192,
        417,
        282,
        356,
        65,
        181,
        355,
        177,
        223,
        319,
        197,
        210,
        452,
        268,
        162,
        34,
        446,
        163,
        51,
        383,
        238,
        91,
        307,
        373,
        321,
        334,
        325,
        324,
        2,
        338,
        331,
        333,
        215,
        413,
        178,
        453,
        85,
        114
    ],
    "Nb of functions evaluations": 200010,
    "Computational time in seconds": 871.3026156425476,
    "Stopping criterion in evaluations": 200000
}